(set-logic HORN)
(declare-datatypes ((Bool_0 0)) (((false_0 ) (true_0 ))))
(declare-fun diseqBool_0 (Bool_0 Bool_0) Bool)
(declare-datatypes ((Nat_0 0)) (((Z_0 ) (S_0 (projS_0 Nat_0)))))
(declare-fun diseqNat_0 (Nat_0 Nat_0) Bool)
(declare-datatypes ((list_0 0)) (((nil_0 ) (cons_0 (head_0 Nat_0) (tail_0 list_0)))))
(declare-fun length_0 (Nat_0 list_0) Bool)
(declare-fun x_1 (Bool_0 Nat_0 Nat_0) Bool)
(declare-fun insert_0 (list_0 Nat_0 list_0) Bool)
(declare-fun isort_0 (list_0 list_0) Bool)
(assert (diseqBool_0 false_0 true_0))
(assert (diseqBool_0 true_0 false_0))
(assert (forall ((x_34 Nat_0))
	(diseqNat_0 Z_0 (S_0 x_34))))
(assert (forall ((x_35 Nat_0))
	(diseqNat_0 (S_0 x_35) Z_0)))
(assert (forall ((x_36 Nat_0) (x_37 Nat_0))
	(=> (diseqNat_0 x_36 x_37) (diseqNat_0 (S_0 x_36) (S_0 x_37)))))
(assert (forall ((x_8 Nat_0) (y_0 Nat_0) (xs_0 list_0))
	(=> (length_0 x_8 xs_0) (length_0 (S_0 x_8) (cons_0 y_0 xs_0)))))
(assert (length_0 Z_0 nil_0))
(assert (forall ((x_10 Bool_0) (x_3 Nat_0) (z_1 Nat_0))
	(=> (x_1 x_10 z_1 x_3) (x_1 x_10 (S_0 z_1) (S_0 x_3)))))
(assert (forall ((z_1 Nat_0))
	(x_1 false_0 (S_0 z_1) Z_0)))
(assert (forall ((y_1 Nat_0))
	(x_1 true_0 Z_0 y_1)))
(assert (forall ((z_2 Nat_0) (xs_1 list_0) (x_4 Nat_0))
	(=> (x_1 true_0 x_4 z_2) (insert_0 (cons_0 x_4 (cons_0 z_2 xs_1)) x_4 (cons_0 z_2 xs_1)))))
(assert (forall ((x_18 list_0) (x_16 Bool_0) (z_2 Nat_0) (xs_1 list_0) (x_4 Nat_0))
	(=> (and (diseqBool_0 x_16 true_0) (insert_0 x_18 x_4 xs_1) (x_1 x_16 x_4 z_2)) (insert_0 (cons_0 z_2 x_18) x_4 (cons_0 z_2 xs_1)))))
(assert (forall ((x_4 Nat_0))
	(insert_0 (cons_0 x_4 nil_0) x_4 nil_0)))
(assert (forall ((x_20 list_0) (x_21 list_0) (y_3 Nat_0) (xs_2 list_0))
	(=> (and (isort_0 x_21 xs_2) (insert_0 x_20 y_3 x_21)) (isort_0 x_20 (cons_0 y_3 xs_2)))))
(assert (isort_0 nil_0 nil_0))
(assert (forall ((x_24 list_0) (x_25 Nat_0) (x_26 Nat_0) (x_6 list_0))
	(=> (and (diseqNat_0 x_25 x_26) (isort_0 x_24 x_6) (length_0 x_25 x_24) (length_0 x_26 x_6)) false)))
(check-sat)
(get-model)
